K-Spacing Value to Generate K-Mesh: 0.000
0
Gamma
2 2  1
0.0  0.0  0.0
